NAME : expansion
TYPE : TSP
DIMENSION : 50
EDGE_WEIGHT_TYPE : EUC_2D
NODE_COORD_SECTION
1 562085 47399
2 568993 45340
3 709174 300461
4 771375 159373
5 13810 991064
6 38591 931641
7 586284 879253
8 806319 955473
9 903552 255869
10 664311 928623
11 6806 927082
12 399557 133987
13 821847 101100
14 768208 536089
15 739112 253909
16 720262 916672
17 982238 27631
18 750405 292877
19 680252 140393
20 814544 317272
21 786043 247398
22 737732 305840
23 959483 116559
24 720659 286969
25 668641 242327
26 683296 891551
27 178144 948222
28 356891 352511
29 719749 890935
30 989463 340150
31 765329 287247
32 767120 103519
33 28560 922997
34 877611 996557
35 534550 225013
36 302920 397968
37 15331 919605
38 807115 156482
39 15340 923515
40 803574 286240
41 195828 97601
42 910028 241548
43 966764 66597
44 617388 937026
45 592058 244860
46 568030 877500
47 522981 85233
48 60829 949899
49 595879 918382
50 714198 302695
EOF
